
Gurobi 12.0.1 (win64, C++) logging started Thu Apr 17 14:14:50 2025

Set parameter TokenServer to value "141.76.38.119"
Set parameter Threads to value 8
Set parameter LazyConstraints to value 1
Set parameter PreCrush to value 1
Set parameter Seed to value 0
Set parameter Cuts to value -1
Set parameter TimeLimit to value 28800
Set parameter NumericFocus to value 0
Set parameter SolutionLimit to value 10000
Gurobi Optimizer version 12.0.1 build v12.0.1rc0 (win64 - Windows Server 2022.0 (20348.2))

CPU model: AMD EPYC 7513 32-Core Processor, instruction set [SSE2|AVX|AVX2]
Thread count: 16 physical cores, 16 logical processors, using up to 8 threads

Non-default parameters:
SolutionLimit  10000
TimeLimit  28800
PreCrush  1
Threads  8
LazyConstraints  1

Optimize a model with 139 rows, 256 columns and 724 nonzeros
Model fingerprint: 0x74efe4e2
Variable types: 0 continuous, 256 integer (256 binary)
Coefficient statistics:
  Matrix range     [1e+00, 1e+00]
  Objective range  [8e+00, 6e+01]
  Bounds range     [1e+00, 1e+00]
  RHS range        [1e+00, 4e+00]

User MIP start produced solution with objective 347.043 (0.00s)
Loaded user MIP start with objective 347.043

Presolve removed 7 rows and 26 columns
Presolve time: 0.00s
Presolved: 132 rows, 230 columns, 662 nonzeros
Variable types: 0 continuous, 230 integer (230 binary)

Root relaxation: objective 2.487960e+02, 63 iterations, 0.00 seconds (0.00 work units)

    Nodes    |    Current Node    |     Objective Bounds      |     Work
 Expl Unexpl |  Obj  Depth IntInf | Incumbent    BestBd   Gap | It/Node Time

     0     0  248.79604    0    -  347.04251  248.79604  28.3%     -    0s
     0     0  250.13267    0   12  347.04251  250.13267  27.9%     -    0s
     0     0  250.65664    0    -  347.04251  250.65664  27.8%     -    0s
     0     0  255.91733    0   22  347.04251  255.91733  26.3%     -    0s
     0     0  257.48490    0    -  347.04251  257.48490  25.8%     -    0s
     0     0  263.75365    0    -  347.04251  263.75365  24.0%     -    0s
     0     0  263.91185    0    -  347.04251  263.91185  24.0%     -    0s
     0     0  268.93547    0   32  347.04251  268.93547  22.5%     -    0s
     0     0  269.08932    0   37  347.04251  269.08932  22.5%     -    0s
     0     0  269.08932    0   37  347.04251  269.08932  22.5%     -    0s
     0     2  277.50607    0   32  347.04251  277.50607  20.0%     -    1s
   132   150  288.83711   14   33  347.04251  284.49448  18.0%  21.0    5s
H  207   195                     318.3813178  284.49448  10.6%  17.4    7s
   498   447  315.84083   65   16  318.38132  285.68921  10.3%  13.2   10s
H  580   458                     307.4407236  285.73039  7.06%  13.0   12s
*  706   455              23     302.0218782  287.87611  4.68%  12.7   12s
  1121   440  297.73719   16   25  302.02188  290.05997  3.96%  12.3   15s
* 1405   491              10     301.7428984  291.76351  3.31%  12.2   16s
* 2327   612              14     301.6582384  294.51597  2.37%  12.0   16s

Cutting planes:
  MIR: 1
  Zero half: 1
  Lazy constraints: 1694

Explored 4031 nodes (46940 simplex iterations) in 17.69 seconds (2.52 work units)
Thread count was 8 (of 16 available processors)

Solution count 6: 301.658 301.743 302.022 ... 347.043

Optimal solution found (tolerance 1.00e-04)
Best objective 3.016582384371e+02, best bound 3.016582384371e+02, gap 0.0000%

User-callback calls 8509, time in user-callback 15.52 sec
### START EXACT APPROACH ###
ProblemVariant: 1
### START PREPROCESSING ###
## Start infeasible path procedure ## 
Deleted arcs: 10
Infeasible tail paths: 2
Infeasible 2-node combinations: 5
## Start extended infeasible path procedure ##
Deleted arcs: 10
Infeasible tail paths: 2
Infeasible 2-node combinations: 5
## Start start solution procedure ##
Start solution with 4 Vehicles and total costs 347.043 in 1.88634 s.
### END PREPROCESSING ###
Route 0 0-1-3-8-7-14-0 : weight util 0.955556 | volume util 0.654800 | infeasible with packing heuristic | feasible with CP model
Route 1 0-5-9-10-15-12-0 : weight util 0.844444 | volume util 0.568978 | feasible with packing heuristic | feasible with CP model
Route 2 0-6-13-4-0 : weight util 0.522222 | volume util 0.562511 | feasible with packing heuristic | feasible with CP model
Route 3 0-11-2-0 : weight util 0.544444 | volume util 0.355400 | feasible with packing heuristic | feasible with CP model
